sat
(:max-memory         18.43
 :memory             18.33
 :nlsat-arith-var    3
 :nlsat-atoms        13
 :nlsat-bool-var     3
 :nlsat-clauses      10
 :nlsat-conflicts    2
 :nlsat-propagations 19
 :nlsat-stages       6
 :num-allocs         50900
 :rlimit-count       1705
 :time               0.00
 :total-time         0.01)
